%nprocshared=40
%mem=364GB
%chk=7tg6+283Cl_3BP_MINg.chk
# opt b3lyp/genecp scrf=(solvent=water) 10f 6d scf=maxcycles=500
symmetry=none

7tg6+283Cl_3BP_MINg

-6 1
 P               -1    4.25200000    4.21100000  -29.56600000
 O               -1    4.05266100    3.93368900  -31.03153300
 O               -1    3.48270600    5.44531100  -29.17988200
 O               -1    3.72800000    2.97100000  -28.71500000
 C               -1    2.84000000    3.18700000  -27.64500000
 H               -1    2.01700000    2.47800000  -27.73500000
 H               -1    2.45100000    4.20300000  -27.70700000
 C               -1    3.52200000    2.99400000  -26.30000000
 H               -1    3.90200000    1.97600000  -26.21200000
 O               -1    4.72500000    3.84800000  -26.20100000
 C               -1    4.64500000    4.48800000  -24.95000000
 H               -1    5.06500000    3.78300000  -24.23200000
 N               -1    5.54400000    5.68800000  -24.81200000
 C               -1    5.57500000    6.63700000  -25.79900000
 H               -1    4.90300000    6.51400000  -26.63500000
 C               -1    6.34200000    7.73700000  -25.74400000
 C               -1    6.38400000    8.72400000  -26.86900000
 H               -1    5.38600000    9.12800000  -27.03600000
 H               -1    7.06700000    9.53500000  -26.61600000
 H               -1    6.73000000    8.22800000  -27.77600000
 C               -1    7.12300000    7.96700000  -24.55500000
 O               -1    7.83500000    8.95500000  -24.41600000
 N               -1    7.01000000    6.99700000  -23.58500000
 H               -1    7.60900000    7.14700000  -22.68700000
 C               -1    6.25100000    5.86400000  -23.63500000
 O               -1    6.23100000    5.07500000  -22.71400000
 C               -1    2.64100000    3.40400000  -25.10900000
 H               -1    1.57500000    3.46300000  -25.32900000
 C               -1    3.17600000    4.79200000  -24.82600000
 H               -1    2.45500000    5.53600000  -25.16400000
 H               -1    3.34100000    4.90700000  -23.75500000
 O               -1    2.83900000    2.53200000  -23.96700000
 P               -1    2.95000000    3.18200000  -22.49300000
 O               -1    1.94800000    4.26700000  -22.34500000
 O               -1    4.38400000    3.37300000  -22.19200000
 O               -1    2.47900000    2.07700000  -21.45700000
 C               -1    1.63900000    2.47800000  -20.35100000
 H               -1    1.34600000    1.55600000  -19.84800000
 H               -1    0.75100000    2.98000000  -20.73500000
 C               -1    2.35000000    3.40600000  -19.33800000
 H               -1    2.98000000    2.78500000  -18.70100000
 O               -1    3.27800000    4.32100000  -19.98700000
 C               -1    3.42400000    5.48800000  -19.20400000
 H               -1    4.25500000    5.40000000  -18.50400000
 N               -1    3.84800000    6.68700000  -20.10200000
 C               -1    3.38400000    6.78000000  -21.41100000
 H               -1    2.70700000    6.01500000  -21.76100000
 C               -1    3.70600000    7.80000000  -22.24900000
 C               -1    3.19500000    7.88400000  -23.65300000
 H               -1    2.10600000    7.92200000  -23.64200000
 H               -1    3.58500000    8.78400000  -24.12900000
 H               -1    3.52200000    7.00700000  -24.21200000
 C               -1    4.57900000    8.82500000  -21.76500000
 O               -1    4.92000000    9.78100000  -22.46200000
 N               -1    5.00100000    8.66900000  -20.46300000
 H               -1    5.71700000    8.32900000  -18.13100000
 C               -1    4.69100000    7.65700000  -19.59000000
 O               -1    5.13200000    7.63900000  -18.45300000
 C               -1    1.40300000    4.30000000  -18.53900000
 H               -1    0.45400000    4.39600000  -19.06700000
 C               -1    2.09700000    5.68600000  -18.46600000
 H               -1    1.34100000    6.46700000  -18.38300000
 H               -1    2.75100000    5.72000000  -17.59500000
 O               -1    1.12600000    3.72600000  -17.23500000
 P               -1    2.20000000    3.76300000  -16.03300000
 O               -1    3.55500000    3.43400000  -16.52600000
 O               -1    1.61100000    2.92800000  -14.96600000
 O               -1    2.18200000    5.27700000  -15.51100000
 C               -1    3.40600000    5.92600000  -15.15400000
 H               -1    4.03200000    5.96200000  -16.04500000
 H               -1    3.92800000    5.38400000  -14.36500000
 C               -1    3.12600000    7.33400000  -14.68700000
 H               -1    3.84400000    7.60400000  -13.91300000
 O               -1    3.37700000    8.28000000  -15.76300000
 C               -1    2.34500000    9.23300000  -15.76600000
 H               -1    2.57300000   10.08400000  -15.12300000
 N               -1    2.26500000    9.85400000  -17.13400000
 C               -1    1.55100000    9.21700000  -18.13000000
 H               -1    1.03000000    8.30800000  -17.87000000
 C               -1    1.43100000    9.69500000  -19.37900000
 C               -1    0.65000000    8.97000000  -20.43200000
 H               -1   -0.38600000    8.86600000  -20.11000000
 H               -1    0.68500000    9.53400000  -21.36400000
 H               -1    1.08200000    7.98200000  -20.58900000
 C               -1    2.07700000   10.93900000  -19.69300000
 O               -1    2.01600000   11.44500000  -20.80800000
 N               -1    2.76500000   11.52500000  -18.65100000
 H               -1    3.24800000   12.47500000  -18.87900000
 C               -1    2.90600000   11.05200000  -17.37400000
 O               -1    3.54900000   11.65600000  -16.52700000
 C               -1    1.68200000    7.56100000  -14.23900000
 H               -1    1.08300000    6.65400000  -14.15800000
 C               -1    1.10600000    8.45700000  -15.34300000
 H               -1    0.29000000    7.93700000  -15.84500000
 H               -1    0.73100000    9.38100000  -14.90300000
 O               -1    1.68100000    8.21100000  -12.99600000
 P               -1    4.53500000   20.54100000  -22.02500000
 O               -1    4.61966900   22.02845700  -22.23648400
 O               -1    4.89631500   19.83144100  -23.30187100
 O               -1    5.54500000   20.11100000  -20.87600000
 C               -1    5.08100000   20.08700000  -19.52900000
 H               -1    4.36400000   19.27200000  -19.43100000
 H               -1    4.58900000   21.03300000  -19.30100000
 C               -1    6.21900000   19.86900000  -18.55100000
 H               -1    5.98800000   20.37700000  -17.61500000
 O               -1    6.27900000   18.48100000  -18.20100000
 C               -1    7.17400000   17.82800000  -19.06600000
 H               -1    7.83400000   17.12800000  -18.55300000
 N               -1    6.40300000   16.96500000  -19.94900000
 C               -1    6.14400000   17.14200000  -21.28000000
 H               -1    6.56000000   17.98600000  -21.81100000
 N               -1    5.42500000   16.17700000  -21.80600000
 C               -1    5.19200000   15.32400000  -20.73900000
 C               -1    4.48700000   14.11400000  -20.62800000
 N               -1    3.86500000   13.53100000  -21.65800000
 H               -1    3.37200000   12.66000000  -21.52300000
 H               -1    3.88800000   13.96200000  -22.57100000
 N               -1    4.45400000   13.52100000  -19.41200000
 C               -1    5.08100000   14.10100000  -18.38500000
 H               -1    5.06500000   13.64600000  -17.40600000
 N               -1    5.77300000   15.23100000  -18.36800000
 C               -1    5.78500000   15.79700000  -19.58900000
 C               -1    7.60900000   20.19900000  -19.07300000
 H               -1    7.62500000   21.01800000  -19.79200000
 C               -1    8.03100000   18.89700000  -19.77100000
 H               -1    8.32200000   19.11300000  -20.79900000
 H               -1    8.87500000   18.45600000  -19.24000000
 O               -1    8.47100000   20.58600000  -17.95400000
 P               -1    9.85100000   19.83300000  -17.58100000
 O               -1   10.36600000   20.53300000  -16.38000000
 O               -1   10.74000000   19.70600000  -18.75800000
 O               -1    9.40300000   18.37300000  -17.11400000
 C               -1    9.96700000   17.81300000  -15.95600000
 H               -1    9.28300000   18.04900000  -15.14100000
 H               -1   10.94600000   18.24100000  -15.74300000
 C               -1   10.09700000   16.30600000  -16.07700000
 H               -1    9.80000000   15.88300000  -15.11700000
 O               -1    9.13500000   15.76900000  -17.02500000
 C               -1    9.68600000   14.56800000  -17.48900000
 H               -1    9.53000000   13.78400000  -16.74800000
 N               -1    8.93500000   14.05900000  -18.68100000
 C               -1    9.00300000   14.74000000  -19.88200000
 H               -1    9.64000000   15.61100000  -19.93300000
 C               -1    8.36700000   14.33900000  -20.99600000
 C               -1    8.45900000   15.10700000  -22.28100000
 H               -1    9.50000000   15.15900000  -22.60000000
 H               -1    7.86900000   14.60500000  -23.04800000
 H               -1    8.07500000   16.11600000  -22.13000000
 C               -1    7.58800000   13.12900000  -20.93100000
 O               -1    6.97400000   12.69000000  -21.89800000
 N               -1    7.57800000   12.49700000  -19.70200000
 H               -1    7.62900000   11.44100000  -17.47000000
 C               -1    8.21700000   12.89100000  -18.56100000
 O               -1    8.13900000   12.25200000  -17.52300000
 C               -1   11.47500000   15.79500000  -16.54400000
 H               -1   12.15000000   16.59400000  -16.85100000
 C               -1   11.14100000   14.91000000  -17.75800000
 H               -1   11.74600000   15.21900000  -18.61100000
 H               -1   11.35600000   13.86800000  -17.51900000
 O               -1   12.11700000   15.05600000  -15.46500000
 P               -1   13.04800000   13.76300000  -15.73800000
 O               -1   13.72700000   13.44900000  -14.46300000
 O               -1   13.88700000   13.93300000  -16.94200000
 O               -1   12.00600000   12.59100000  -16.02700000
 C               -1   11.17200000   12.11800000  -14.98700000
 H               -1   10.19500000   12.58100000  -15.12600000
 H               -1   11.56900000   12.39500000  -14.01000000
 C               -1   11.02400000   10.60900000  -15.05600000
 H               -1   10.41300000   10.27900000  -14.21600000
 O               -1   10.25000000   10.25900000  -16.22600000
 C               -1   11.06500000    9.63400000  -17.19300000
 H               -1   10.73400000    8.62800000  -17.45000000
 N               -1   10.93100000   10.35900000  -18.46000000
 C               -1   11.45100000   11.58500000  -18.77900000
 H               -1   12.07800000   12.10900000  -18.07200000
 N               -1   11.16200000   11.98300000  -19.99900000
 C               -1   10.39800000   10.94800000  -20.51200000
 C               -1    9.77800000   10.75000000  -21.76600000
 N               -1    9.83600000   11.63200000  -22.77100000
 H               -1    9.37100000   11.43300000  -23.64500000
 H               -1   10.34500000   12.49700000  -22.65500000
 N               -1    9.09200000    9.60300000  -21.94400000
 C               -1    9.03300000    8.72200000  -20.93800000
 H               -1    8.49000000    7.79600000  -21.06000000
 N               -1    9.57000000    8.79900000  -19.72300000
 C               -1   10.24500000    9.94500000  -19.57400000
 C               -1   12.33300000    9.83300000  -15.15600000
 H               -1   13.18700000   10.39700000  -14.78000000
 C               -1   12.50000000    9.59600000  -16.65400000
 H               -1   13.46700000    9.98000000  -16.97800000
 H               -1   12.44600000    8.52700000  -16.86100000
 O               -1   12.24600000    8.60900000  -14.42400000
 Hg              -1    6.23900000   10.72500000  -20.58400000
 Cl               0    3.63987200   14.12942800  -24.86791300
 Cl               0    6.74079200    9.69642600  -17.08853900
 H               -1   13.12993300    8.28757700  -14.23177600
 H               -1    2.58586800    8.35958500  -12.71186000
 O               -1    5.91534500    4.45490800  -29.25312500
 H               -1    6.41677300    4.31720000  -30.06009900
 O               -1    2.94135000   20.11974300  -21.57011300
 H               -1    2.31778000   20.70046800  -22.01228800

